coords = array2d(1..52, 1..2, [206, 156, 318, 747, 955, 730, 629, 567, 874,
    488, 915, 989, 56, 903, 70, 627, 862, 580, 396, 50, 418, 160, 61,
    751, 463, 561, 761, 565, 49, 560, 937, 88, 133, 266, 716, 113,
    315, 945, 868, 904, 344, 525, 106, 989, 792, 750, 59, 787, 955,
    180, 211, 525, 786, 707, 561, 764, 1, 949, 142, 653, 951, 259,
    195, 461, 712, 326, 113, 333, 106, 965, 938, 112, 805, 689, 362,
    91, 959, 956, 140, 708, 742, 314, 662, 736, 164, 940, 463, 580,
    916, 655, 157, 476, 423, 828, 475, 342, 402, 648, 527, 499, 717,
    335, 517, 246]);

n = 52;

